NAME: random101
TYPE: TSP
DIMENSION: 101
EDGE_WEIGHT_TYPE: EXPLICIT
EDGE_WEIGHT_FORMAT: FULL_MATRIX
EDGE_WEIGHT_SECTION
0 121 31 121 121 22 121 121 121 121 121 121 121 1 22 121 24 121 121 35 121 121 121 121 20 17 121 121 121 121 32 121 9 121 121 121 20 121 15 121 121 19 121 121 121 121 22 121 13 22 121 35 121 121 121 121 121 121 121 121 121 121 23 29 15 26 121 121 121 121 121 121 121 121 32 121 121 24 121 121 121 31 17 13 121 121 22 121 121 121 121 121 121 121 121 15 28 27 121 121 121
121 0 121 121 121 121 121 121 44 121 121 4 121 121 121 121 121 121 121 121 10 121 17 121 121 121 5 121 121 3 121 121 121 30 47 121 121 121 121 121 121 121 121 28 121 44 121 67 121 121 121 121 121 13 121 121 121 121 121 121 121 121 121 121 121 121 121 38 121 121 121 121 121 121 121 121 121 48 121 121 121 121 121 121 121 121 121 16 121 121 121 13 26 121 121 121 35 121 57 48 121
31 121 0 121 121 121 121 121 121 121 121 121 121 30 30 23 121 121 18 17 121 6 121 121 121 31 121 121 121 121 25 121 30 121 121 21 121 121 31 121 18 121 121 121 121 121 121 121 121 16 121 121 121 121 121 9 121 121 121 121 121 121 121 121 121 121 121 121 121 121 121 5 121 34 121 121 121 121 28 121 20 121 121 33 121 12 121 121 14 25 121 121 121 121 10 121 121 5 121 121 121
121 121 121 0 121 121 17 121 121 121 121 121 16 121 121 121 121 121 121 23 121 39 121 121 121 121 121 121 121 121 14 121 30 121 121 121 121 121 121 121 121 121 121 121 121 121 121 121 35 121 121 121 121 121 121 43 121 121 10 121 121 121 121 121 25 121 15 121 121 121 121 121 121 121 7 13 26 121 61 25 22 121 121 121 18 121 121 121 121 121 121 121 121 9 43 121 121 35 121 121 121
121 121 121 121 0 23 121 25 121 9 121 121 121 121 121 121 121 121 121 121 121 121 121 6 121 121 121 16 23 121 121 121 121 40 121 121 121 7 121 10 121 121 25 121 121 121 21 121 121 121 15 121 27 121 121 121 20 121 121 21 121 22 121 121 121 121 121 121 20 19 13 121 8 121 121 121 121 121 121 121 121 19 121 121 121 121 121 121 121 121 121 121 53 121 121 121 121 121 121 121 121
22 121 121 121 23 0 121 121 121 19 121 121 121 23 121 121 15 121 121 121 121 121 121 121 20 121 121 23 22 121 121 121 30 33 121 121 12 18 121 121 121 121 121 121 121 121 8 121 26 121 14 18 121 121 121 121 15 121 121 121 121 121 12 121 121 19 121 121 121 121 121 121 17 121 121 121 121 121 121 121 121 9 14 18 121 121 121 121 121 121 121 121 121 121 121 11 121 121 121 121 18
121 121 121 17 121 121 0 121 21 121 121 121 21 121 121 121 121 121 121 121 121 121 121 121 121 121 121 121 121 121 28 121 121 121 20 121 121 121 121 121 121 121 121 121 18 21 121 18 121 121 121 121 121 121 121 121 121 121 7 121 8 121 121 14 24 121 20 29 121 121 121 121 121 121 19 6 17 23 121 19 37 121 121 121 7 121 21 121 121 121 121 121 121 15 121 121 121 121 8 22 121
121 121 121 121 25 121 121 0 121 24 121 121 121 121 39 121 121 11 121 121 121 121 121 30 121 121 121 121 121 121 121 25 121 121 121 121 121 31 121 26 121 121 3 121 121 121 121 121 121 121 29 121 6 121 12 121 31 50 121 26 121 18 121 121 121 121 121 121 121 14 121 121 27 35 121 121 121 121 121 121 121 121 121 121 121 121 121 121 121 121 18 121 78 121 121 121 121 121 121 121 121
121 44 121 121 121 121 21 121 0 121 121 121 121 121 121 121 121 121 121 121 121 121 34 121 121 121 38 121 121 43 121 121 121 121 5 121 121 121 121 121 121 121 121 43 121 1 121 25 31 121 121 121 121 121 121 121 121 121 121 121 16 121 121 16 31 37 121 8 121 121 121 121 121 121 121 24 28 19 121 33 121 121 121 121 19 121 22 28 121 121 121 43 121 121 121 121 32 121 14 9 121
121 121 121 121 9 19 121 24 121 0 121 121 121 121 27 121 121 23 121 121 121 121 121 13 21 121 121 22 121 121 121 30 121 121 121 121 17 10 121 18 121 121 26 121 121 121 14 121 121 121 7 121 24 121 23 121 12 51 121 12 121 15 121 121 121 121 121 121 26 23 20 121 4 121 121 121 121 121 121 121 121 18 121 121 121 121 121 121 121 121 23 121 58 121 121 121 121 121 121 121 121
121 121 121 121 121 121 121 121 121 121 0 121 121 18 6 121 121 121 121 121 121 121 121 121 3 1 121 121 121 121 121 121 121 121 121 121 10 121 3 121 20 2 121 121 121 121 121 121 121 16 121 121 121 121 121 121 13 121 121 14 121 121 121 121 121 121 121 121 121 121 121 121 121 121 121 121 121 121 121 121 121 121 7 5 121 121 121 121 121 121 26 121 121 121 121 10 121 121 121 121 121
121 4 121 121 121 121 121 121 121 121 121 0 121 121 121 121 121 121 121 121 6 121 18 121 121 121 9 121 121 4 121 121 121 28 121 121 121 121 121 121 121 121 121 121 121 121 121 121 121 121 121 121 121 10 121 121 121 121 121 121 121 121 121 121 121 121 121 41 52 121 121 121 121 121 121 121 121 121 121 121 121 121 121 121 121 121 121 18 121 121 121 12 22 121 121 121 121 121 121 51 121
121 121 121 16 121 121 21 121 121 121 121 121 0 121 121 121 121 121 121 36 121 121 121 121 121 121 121 121 121 121 28 121 121 121 121 121 121 121 121 121 121 121 121 121 121 121 121 121 121 121 121 121 121 121 121 55 121 121 18 121 121 121 121 121 121 121 1 121 121 121 121 121 121 121 22 121 18 121 72 14 33 121 121 121 121 62 121 121 64 121 121 121 121 7 56 121 121 121 121 121 121
1 121 30 121 121 23 121 121 121 121 18 121 121 0 22 121 25 121 121 34 121 36 121 121 121 17 121 121 121 121 31 121 8 121 121 31 20 121 15 121 29 19 121 121 121 121 121 121 14 21 121 121 121 121 121 121 121 121 121 121 121 121 24 121 15 121 121 121 121 121 121 36 121 121 32 121 121 121 121 121 37 121 17 13 121 41 22 121 121 121 121 121 121 121 121 15 121 26 121 121 121
22 121 30 121 121 121 121 39 121 27 6 121 121 22 0 32 121 29 32 121 121 35 121 121 6 6 121 121 121 121 121 22 29 121 121 15 14 121 8 121 15 6 42 121 121 121 19 121 121 14 20 121 34 121 28 121 16 28 121 15 121 21 121 121 121 121 121 121 121 121 121 34 121 18 121 121 121 121 121 121 121 121 12 11 121 34 121 121 121 21 23 121 121 121 121 16 121 28 121 121 121
121 121 23 121 121 121 121 121 121 121 121 121 121 121 32 0 121 121 5 121 121 121 121 121 121 121 121 121 121 121 121 33 121 121 121 17 121 121 121 121 18 121 121 121 121 121 121 121 121 121 121 121 52 121 121 121 121 8 121 121 121 121 121 121 121 121 121 121 121 121 121 121 121 23 121 121 121 121 18 121 121 121 121 121 121 13 121 121 12 12 121 121 121 121 21 121 121 121 121 121 121
24 121 121 121 121 15 121 121 121 121 121 121 121 25 121 121 0 121 121 121 121 121 26 121 121 121 121 121 24 121 121 121 29 25 121 121 121 121 121 121 121 121 121 17 121 121 23 121 20 121 121 12 121 121 121 121 121 121 121 121 121 121 3 121 30 4 121 121 121 121 121 121 121 121 121 121 121 26 121 121 121 17 121 28 121 121 27 32 121 121 121 30 121 121 121 22 9 121 121 121 16
121 121 121 121 121 121 121 11 121 23 121 121 121 121 29 121 121 0 121 121 121 121 121 121 121 121 121 121 121 121 121 13 121 121 121 121 121 121 121 121 121 121 14 121 121 121 121 121 121 121 121 121 6 121 1 121 121 39 121 20 121 11 121 121 121 121 121 121 121 121 121 121 121 24 121 121 121 121 121 121 121 121 121 121 121 121 121 121 121 35 7 121 121 121 121 121 121 121 121 121 121
121 121 18 121 121 121 121 121 121 121 121 121 121 121 32 5 121 121 0 121 121 17 121 121 121 121 121 121 121 121 121 36 121 121 121 17 121 121 121 121 16 121 121 121 121 121 121 121 121 22 121 121 121 121 121 16 121 12 121 121 121 121 121 121 121 121 121 121 121 121 121 16 121 25 121 121 121 121 17 121 37 121 121 121 121 8 121 121 7 14 121 121 121 121 15 121 121 22 121 121 121
35 121 17 23 121 121 121 121 121 121 121 121 36 34 121 121 121 121 121 0 121 17 121 121 121 121 121 121 121 121 11 121 30 121 121 121 121 121 121 121 34 121 121 121 121 121 121 121 40 30 121 121 121 121 121 20 121 121 32 121 121 121 121 121 30 121 35 121 121 121 121 18 121 121 19 121 121 121 38 121 3 121 121 121 121 27 121 121 121 121 121 121 121 31 20 121 121 16 121 121 121
121 10 121 121 121 121 121 121 121 121 121 6 121 121 121 121 121 121 121 121 0 121 18 121 121 121 13 121 40 9 121 121 121 23 121 121 121 121 121 65 121 121 121 24 121 121 121 121 121 121 121 121 121 6 121 121 121 121 121 121 121 121 121 121 121 121 121 45 46 121 121 121 121 121 121 121 121 121 121 121 121 121 121 121 121 121 121 121 121 121 121 10 16 121 121 121 121 121 121 121 121
121 121 6 39 121 121 121 121 121 121 121 121 121 36 35 121 121 121 17 17 121 0 121 121 121 121 121 121 121 121 26 121 35 121 121 121 121 121 36 121 22 121 121 121 121 121 121 121 121 22 121 121 121 121 121 4 121 121 121 121 121 121 121 121 39 121 121 121 121 121 121 1 121 121 121 121 121 121 23 121 19 121 121 121 121 10 121 121 121 121 121 121 121 121 5 121 121 10 121 121 121
121 17 121 121 121 121 121 121 34 121 121 18 121 121 121 121 26 121 121 121 18 121 0 121 121 121 13 121 121 14 121 121 121 23 121 121 121 121 121 121 121 121 121 15 121 34 121 121 36 121 121 26 121 15 121 121 121 121 121 121 121 121 121 39 121 22 121 30 121 121 121 121 121 121 121 121 121 33 121 121 121 121 121 121 121 121 36 9 121 121 121 9 28 121 121 121 19 121 121 41 30
121 121 121 121 6 121 121 30 121 13 121 121 121 121 121 121 121 121 121 121 121 121 121 0 121 121 121 11 17 121 121 121 121 35 121 121 121 5 121 10 121 121 121 121 121 121 22 121 121 121 18 121 121 121 121 121 121 121 121 121 121 121 121 121 121 121 121 121 14 23 8 121 10 121 121 121 121 121 121 121 121 16 121 121 121 121 121 121 121 121 121 121 48 121 121 121 121 121 121 121 22
20 121 121 121 121 20 121 121 121 21 3 121 121 121 6 121 121 121 121 121 121 121 121 121 0 4 121 121 121 121 121 25 121 121 121 121 8 121 6 121 121 1 121 121 121 121 13 121 121 121 15 121 121 121 28 121 10 121 121 11 121 19 121 121 121 121 121 121 121 121 121 121 22 23 121 121 121 121 121 121 121 121 6 7 121 121 121 121 121 121 23 121 121 121 121 10 121 121 121 121 121
17 121 31 121 121 121 121 121 121 121 1 121 121 17 6 121 121 121 121 121 121 121 121 121 4 0 121 121 121 121 121 121 25 121 121 20 10 121 2 121 20 3 121 121 121 121 15 121 121 16 121 121 121 121 121 121 13 121 121 15 121 121 29 121 121 121 121 121 121 121 121 121 121 121 121 121 121 121 121 121 121 121 7 5 121 121 121 121 121 121 121 121 121 121 121 10 121 29 121 121 121
121 5 121 121 121 121 121 121 38 121 121 9 121 121 121 121 121 121 121 121 13 121 13 121 121 121 0 121 121 5 121 121 121 30 41 121 121 121 121 121 121 121 121 26 121 39 121 121 47 121 121 37 121 14 121 121 121 121 121 121 121 121 121 47 121 35 121 32 121 121 121 121 121 121 121 121 121 43 121 121 121 121 121 121 121 121 121 10 121 121 121 13 29 121 121 121 31 121 51 43 121
121 121 121 121 16 23 121 121 121 22 121 121 121 121 121 121 121 121 121 121 121 121 121 11 121 121 121 0 8 121 121 121 121 25 121 121 121 12 121 18 121 121 121 121 121 121 26 121 121 121 25 20 121 43 121 121 121 121 121 121 121 121 27 121 121 121 121 121 5 32 5 121 19 121 121 121 121 121 121 121 121 15 121 121 121 121 121 121 121 121 121 121 37 121 121 121 121 121 121 121 15
121 121 121 121 23 22 121 121 121 121 121 121 121 121 121 121 24 121 121 121 40 121 121 17 121 121 121 8 0 121 121 121 121 18 121 121 121 17 121 25 121 121 121 22 121 121 27 121 121 121 121 13 121 35 121 121 121 121 121 121 121 121 23 121 121 26 121 121 9 39 13 121 23 121 121 121 121 121 121 121 121 13 121 121 121 121 121 121 121 121 121 34 31 121 121 121 121 121 121 121 8
121 3 121 121 121 121 121 121 43 121 121 4 121 121 121 121 121 121 121 121 9 121 14 121 121 121 5 121 121 0 121 121 121 28 46 121 121 121 121 121 121 121 121 25 121 121 121 121 121 121 121 36 121 11 121 121 121 121 121 121 121 121 121 121 121 121 121 37 52 121 121 121 121 121 121 121 121 121 121 121 121 121 121 121 121 121 121 14 121 121 121 11 25 121 121 121 33 121 121 47 121
32 121 25 14 121 121 28 121 121 121 121 121 28 31 121 121 121 121 121 11 121 26 121 121 121 121 121 121 121 121 0 121 24 121 121 121 121 121 41 121 121 121 121 121 121 121 121 121 33 34 121 121 121 121 121 29 121 121 21 121 121 121 52 30 23 121 27 121 121 121 121 27 121 121 9 22 121 34 48 38 10 121 121 41 26 36 30 121 121 121 121 121 121 22 30 121 121 21 121 121 121
121 121 121 121 121 121 121 25 121 30 121 121 121 121 22 33 121 13 36 121 121 121 121 121 25 121 121 121 121 121 121 0 121 121 121 24 121 121 121 121 27 25 28 121 121 121 121 121 121 31 121 121 19 121 13 121 26 26 121 21 121 15 121 121 121 121 121 121 121 37 121 121 121 11 121 121 121 121 52 121 121 121 121 121 121 121 121 121 121 22 8 121 121 121 121 121 121 121 121 121 121
9 121 30 30 121 30 121 121 121 121 121 121 121 8 29 121 29 121 121 30 121 35 121 121 121 25 121 121 121 121 24 121 0 121 121 121 121 121 23 121 33 121 121 121 121 121 121 121 11 25 121 40 121 121 121 39 121 121 29 121 121 121 28 22 7 30 121 121 121 121 121 121 121 121 24 26 121 19 121 121 31 121 25 21 26 121 16 121 121 121 121 121 121 121 121 23 30 25 121 121 121
121 30 121 121 40 33 121 121 121 121 121 28 121 121 121 121 25 121 121 121 23 121 23 35 121 121 30 25 18 28 121 121 121 0 121 121 121 34 121 42 121 121 121 11 121 121 121 121 44 121 121 15 121 18 121 121 121 121 121 121 121 121 26 121 121 24 121 121 24 57 30 121 121 121 121 121 121 121 121 121 121 27 121 121 121 121 121 31 121 121 121 18 15 121 121 121 26 121 121 121 15
121 47 121 121 121 121 20 121 5 121 121 121 121 121 121 121 121 121 121 121 121 121 121 121 121 121 41 121 121 46 121 121 121 121 0 121 121 121 121 121 121 121 121 121 27 4 121 21 121 121 121 121 121 121 121 121 121 121 121 121 17 121 121 19 121 121 121 9 121 121 121 121 121 121 121 121 25 23 121 121 121 121 121 121 121 121 121 32 121 121 121 121 121 121 121 121 121 121 12 5 121
121 121 21 121 121 121 121 121 121 121 121 121 121 31 15 17 121 121 17 121 121 121 121 121 121 20 121 121 121 121 121 24 121 121 121 0 121 121 21 121 3 121 121 121 121 121 121 121 121 10 121 121 41 121 34 121 121 15 121 28 121 121 121 121 121 121 121 121 121 121 121 121 121 13 121 121 121 121 34 121 121 121 121 121 121 21 121 121 20 8 28 121 121 121 121 121 121 22 121 121 121
20 121 121 121 121 12 121 121 121 17 10 121 121 20 14 121 121 121 121 121 121 121 121 121 8 10 121 121 121 121 121 121 121 121 121 121 0 121 11 121 121 8 121 121 121 121 5 121 121 121 9 121 121 121 121 121 6 121 121 11 121 121 23 121 121 121 121 121 121 121 121 121 16 121 121 121 121 121 121 121 121 19 4 9 121 121 121 121 121 121 26 121 121 121 121 6 121 121 121 121 121
121 121 121 121 7 18 121 31 121 10 121 121 121 121 121 121 121 121 121 121 121 121 121 5 121 121 121 12 17 121 121 121 121 34 121 121 121 0 121 15 121 121 121 121 121 121 17 121 121 121 14 25 121 121 121 121 18 121 121 21 121 121 26 121 121 121 121 121 16 26 11 121 7 121 121 121 121 121 121 121 121 12 121 121 121 121 121 121 121 121 121 121 48 121 121 25 121 121 121 121 20
15 121 31 121 121 121 121 121 121 121 3 121 121 15 8 121 121 121 121 121 121 36 121 121 6 2 121 121 121 121 41 121 23 121 121 21 11 121 0 121 20 5 121 121 121 121 121 121 28 15 121 121 121 121 121 121 121 121 121 121 121 121 28 121 121 121 121 121 121 121 121 121 121 25 121 121 121 121 121 121 121 121 7 3 121 37 121 121 121 28 121 121 121 121 121 9 121 28 121 121 121
121 121 121 121 10 121 121 26 121 18 121 121 121 121 121 121 121 121 121 121 65 121 121 10 121 121 121 18 25 121 121 121 121 42 121 121 121 15 121 0 121 121 25 121 121 121 121 121 121 121 25 121 121 60 121 121 121 121 121 121 121 29 121 121 121 121 121 121 19 14 12 121 18 121 121 121 121 121 121 121 121 26 121 121 121 121 121 121 121 121 121 59 53 121 121 121 121 121 121 121 31
121 121 18 121 121 121 121 121 121 121 20 121 121 29 15 18 121 121 16 34 121 22 121 121 121 20 121 121 121 121 121 27 33 121 121 3 121 121 20 121 0 121 121 121 121 121 121 121 121 7 121 121 121 121 121 23 121 17 121 121 121 121 121 121 121 121 121 121 121 121 121 21 121 17 121 121 121 121 33 121 121 121 121 23 121 19 121 121 19 11 31 121 121 121 23 121 121 19 121 121 121
19 121 121 121 121 121 121 121 121 121 2 121 121 19 6 121 121 121 121 121 121 121 121 121 1 3 121 121 121 121 121 25 121 121 121 121 8 121 5 121 121 0 121 121 121 121 14 121 121 18 15 121 121 121 121 121 11 121 121 12 121 20 121 121 121 121 121 121 121 121 121 121 121 121 121 121 121 121 121 121 121 121 6 7 121 121 121 121 121 121 24 121 121 121 121 10 121 121 121 121 121
121 121 121 121 25 121 121 3 121 26 121 121 121 121 42 121 121 14 121 121 121 121 121 121 121 121 121 121 121 121 121 28 121 121 121 121 121 121 121 25 121 121 0 121 121 121 121 121 121 121 121 121 9 121 15 121 121 53 121 29 121 21 121 121 121 121 121 121 121 12 121 121 29 38 121 121 121 121 121 121 121 121 121 121 121 121 121 121 121 49 21 121 121 121 121 121 121 121 121 121 121
121 28 121 121 121 121 121 121 43 121 121 121 121 121 121 121 17 121 121 121 24 121 15 121 121 121 26 121 22 25 121 121 121 11 121 121 121 121 121 121 121 121 121 0 121 121 121 121 34 121 121 11 121 18 121 121 121 121 121 121 121 121 19 121 121 14 121 42 30 121 121 121 121 121 121 121 121 35 121 121 121 25 121 121 121 121 38 23 121 121 121 14 24 121 121 121 15 121 121 121 16
121 121 121 121 121 121 18 121 121 121 121 121 121 121 121 121 121 121 121 121 121 121 121 121 121 121 121 121 121 121 121 121 121 121 27 121 121 121 121 121 121 121 121 121 0 121 121 7 121 121 121 121 121 121 121 121 121 121 21 121 24 121 121 121 121 121 17 121 121 121 121 121 121 121 121 121 2 121 121 3 121 121 121 121 121 121 121 121 121 121 121 121 121 18 121 121 121 121 19 26 121
121 44 121 121 121 121 21 121 1 121 121 121 121 121 121 121 121 121 121 121 121 121 34 121 121 121 39 121 121 121 121 121 121 121 4 121 121 121 121 121 121 121 121 121 121 0 121 24 121 121 121 121 121 121 121 121 121 121 121 121 16 121 121 17 121 121 121 8 121 121 121 121 121 121 121 121 28 20 121 121 121 121 121 121 19 121 121 29 121 121 121 121 121 121 121 121 33 121 13 9 121
22 121 121 121 21 8 121 121 121 14 121 121 121 121 19 121 23 121 121 121 121 121 121 22 13 15 121 26 27 121 121 121 121 121 121 121 5 17 121 121 121 14 121 121 121 121 0 121 30 121 7 26 121 121 121 121 7 121 121 13 121 21 20 121 121 121 121 121 121 37 121 121 13 121 121 121 121 121 121 121 121 14 9 13 121 121 121 121 121 121 121 121 121 121 121 8 121 121 121 121 25
121 67 121 121 121 121 18 121 25 121 121 121 121 121 121 121 121 121 121 121 121 121 121 121 121 121 121 121 121 121 121 121 121 121 21 121 121 121 121 121 121 121 121 121 7 24 121 0 121 121 121 121 121 121 121 121 121 121 121 121 23 121 121 121 121 121 121 29 121 121 121 121 121 121 121 121 5 121 121 10 121 121 121 121 24 121 121 121 121 121 121 121 121 23 121 121 121 121 16 19 121
13 121 121 35 121 26 121 121 31 121 121 121 121 14 121 121 20 121 121 40 121 121 36 121 121 121 47 121 121 121 33 121 11 44 121 121 121 121 28 121 121 121 121 34 121 121 30 121 0 35 121 31 121 121 121 121 121 121 121 121 25 121 20 18 11 20 121 36 121 121 121 121 121 121 30 27 121 11 121 121 121 33 28 25 24 121 10 38 121 121 121 43 121 121 121 24 19 36 121 121 36
22 121 16 121 121 121 121 121 121 121 16 121 121 21 14 121 121 121 22 30 121 22 121 121 121 16 121 121 121 121 34 31 25 121 121 10 121 121 15 121 7 18 121 121 121 121 121 121 35 0 121 121 121 121 121 24 121 121 121 121 121 121 121 121 32 121 121 121 121 121 121 21 121 22 121 121 121 121 121 121 121 121 22 18 121 22 121 121 22 18 121 121 121 121 121 25 121 15 121 121 121
121 121 121 121 15 14 121 29 121 7 121 121 121 121 20 121 121 121 121 121 121 121 121 18 15 121 121 25 121 121 121 121 121 121 121 121 9 14 121 25 121 15 121 121 121 121 7 121 121 121 0 121 28 121 25 121 5 121 121 8 121 15 26 121 121 121 121 121 121 30 121 121 8 121 121 121 121 121 121 121 121 17 13 121 121 121 121 121 121 121 23 121 121 121 121 14 121 121 121 121 121
35 121 121 121 121 18 121 121 121 121 121 121 121 121 121 121 12 121 121 121 121 121 26 121 121 121 37 20 13 36 121 121 40 15 121 121 121 25 121 121 121 121 121 11 121 121 26 121 31 121 121 0 121 29 121 121 121 121 121 121 121 121 12 121 121 13 121 121 22 121 121 121 28 121 121 121 121 37 121 121 121 14 121 121 121 121 121 34 121 121 121 26 30 121 121 29 17 121 121 121 6
121 121 121 121 27 121 121 6 121 24 121 121 121 121 34 52 121 6 121 121 121 121 121 121 121 121 121 121 121 121 121 19 121 121 121 41 121 121 121 121 121 121 9 121 121 121 121 121 121 121 28 121 0 121 7 121 121 45 121 23 121 15 121 121 121 121 121 121 121 19 121 121 121 30 121 121 121 121 121 121 121 121 121 121 121 121 121 121 121 41 13 121 121 121 121 121 121 121 121 121 121
121 13 121 121 121 121 121 121 121 121 121 10 121 121 121 121 121 121 121 121 6 121 15 121 121 121 14 43 35 11 121 121 121 18 121 121 121 121 121 60 121 121 121 18 121 121 121 121 121 121 121 29 121 0 121 121 121 121 121 121 121 121 121 121 121 31 121 44 42 75 48 121 121 121 121 121 121 121 121 121 121 121 121 121 121 121 121 20 121 121 121 6 15 121 121 121 30 121 121 121 31
121 121 121 121 121 121 121 12 121 23 121 121 121 121 28 121 121 1 121 121 121 121 121 121 28 121 121 121 121 121 121 13 121 121 121 34 121 121 121 121 121 121 15 121 121 121 121 121 121 121 25 121 7 121 0 121 121 39 121 19 121 10 121 121 121 121 121 121 121 25 121 121 121 23 121 121 121 121 121 121 121 121 121 121 121 121 121 121 121 121 6 121 121 121 121 121 121 121 121 121 121
121 121 9 43 121 121 121 121 121 121 121 121 55 121 121 121 121 121 16 20 121 4 121 121 121 121 121 121 121 121 29 121 39 121 121 121 121 121 121 121 23 121 121 121 121 121 121 121 121 24 121 121 121 121 121 0 121 121 121 121 121 121 121 121 121 121 54 121 121 121 121 4 121 121 38 121 121 121 19 121 22 121 121 121 121 8 121 121 9 121 121 121 121 121 1 121 121 14 121 121 121
121 121 121 121 20 15 121 31 121 12 13 121 121 121 16 121 121 121 121 121 121 121 121 121 10 13 121 121 121 121 121 26 121 121 121 121 6 18 121 121 121 11 121 121 121 121 7 121 121 121 5 121 121 121 121 121 0 121 121 6 121 15 27 121 121 121 121 121 121 121 121 121 12 121 121 121 121 121 121 121 121 20 9 14 121 121 121 121 121 121 22 121 121 121 121 12 121 121 121 121 121
121 121 121 121 121 121 121 50 121 51 121 121 121 121 28 8 121 39 12 121 121 121 121 121 121 121 121 121 121 121 121 26 121 121 121 15 121 121 121 121 17 121 53 121 121 121 121 121 121 121 121 121 45 121 39 121 121 0 121 39 121 38 121 121 121 121 121 121 121 63 121 121 121 16 121 121 121 121 26 121 121 121 121 121 121 20 121 121 19 7 33 121 121 121 121 121 121 121 121 121 121
121 121 121 10 121 121 7 121 121 121 121 121 18 121 121 121 121 121 121 32 121 121 121 121 121 121 121 121 121 121 21 121 29 121 121 121 121 121 121 121 121 121 121 121 21 121 121 121 121 121 121 121 121 121 121 121 121 121 0 121 12 121 121 17 23 121 17 121 121 121 121 121 121 121 12 4 20 121 121 20 30 121 121 121 9 121 121 121 121 121 121 121 121 11 121 121 121 121 14 121 121
121 121 121 121 21 121 121 26 121 12 14 121 121 121 15 121 121 20 121 121 121 121 121 121 11 15 121 121 121 121 121 21 121 121 121 28 11 21 121 121 121 12 29 121 121 121 13 121 121 121 8 121 23 121 19 121 6 39 121 0 121 9 121 121 121 121 121 121 121 31 121 121 14 24 121 121 121 121 121 121 121 25 13 121 121 121 121 121 121 121 16 121 121 121 121 17 121 121 121 121 121
121 121 121 121 121 121 8 121 16 121 121 121 121 121 121 121 121 121 121 121 121 121 121 121 121 121 121 121 121 121 121 121 121 121 17 121 121 121 121 121 121 121 121 121 24 16 121 23 25 121 121 121 121 121 121 121 121 121 12 121 0 121 121 7 20 121 121 24 121 121 121 121 121 121 21 8 23 15 121 26 121 121 121 121 3 121 15 41 121 121 121 121 121 22 121 121 35 121 7 20 121
121 121 121 121 22 121 121 18 121 15 121 121 121 121 21 121 121 11 121 121 121 121 121 121 19 121 121 121 121 121 121 15 121 121 121 121 121 121 121 29 121 20 21 121 121 121 21 121 121 121 15 121 15 121 10 121 15 38 121 9 121 0 121 121 121 121 121 121 121 26 121 121 18 22 121 121 121 121 121 121 121 121 121 121 121 121 121 121 121 121 8 121 121 121 121 121 121 121 121 121 121
23 121 121 121 121 12 121 121 121 121 121 121 121 24 121 121 3 121 121 121 121 121 121 121 121 29 121 27 23 121 52 121 28 26 121 121 23 26 28 121 121 121 121 19 121 121 20 121 20 121 26 12 121 121 121 121 27 121 121 121 121 121 0 121 30 7 121 121 121 121 121 121 27 121 121 121 121 28 121 121 121 14 24 25 121 121 29 121 121 121 121 121 121 121 121 19 13 49 121 121 16
29 121 121 121 121 121 14 121 16 121 121 121 121 121 121 121 121 121 121 121 121 121 39 121 121 121 47 121 121 121 30 121 22 121 19 121 121 121 121 121 121 121 121 121 121 17 121 121 18 121 121 121 121 121 121 121 121 121 17 121 7 121 121 0 15 32 121 24 121 121 121 121 121 121 23 13 30 8 121 121 121 121 121 121 8 121 8 37 121 121 121 121 121 121 121 121 28 121 13 121 121
15 121 121 25 121 121 24 121 31 121 121 121 121 15 121 121 30 121 121 30 121 39 121 121 121 121 121 121 121 121 23 121 7 121 121 121 121 121 121 121 121 121 121 121 121 121 121 121 11 32 121 121 121 121 121 121 121 121 23 121 20 121 30 15 0 30 38 121 121 121 121 121 121 121 20 19 121 14 121 121 31 121 121 28 18 121 10 46 121 121 121 121 121 32 121 29 29 29 27 121 121
26 121 121 121 121 19 121 121 37 121 121 121 121 121 121 121 4 121 121 121 121 121 22 121 121 121 35 121 26 121 121 121 30 24 121 121 121 121 121 121 121 121 121 14 121 121 121 121 20 121 121 13 121 31 121 121 121 121 121 121 121 121 7 32 30 0 121 121 121 121 121 121 121 121 121 121 121 24 121 121 121 21 121 121 121 121 26 28 121 121 121 26 121 121 121 26 5 121 121 121 18
121 121 121 15 121 121 20 121 121 121 121 121 1 121 121 121 121 121 121 35 121 121 121 121 121 121 121 121 121 121 27 121 121 121 121 121 121 121 121 121 121 121 121 121 17 121 121 121 121 121 121 121 121 121 121 54 121 121 17 121 121 121 121 121 38 121 0 121 121 121 121 121 121 121 21 21 18 121 72 15 32 121 121 121 121 61 121 121 121 121 121 121 121 6 55 121 121 48 26 121 121
121 38 121 121 121 121 29 121 8 121 121 41 121 121 121 121 121 121 121 121 45 121 30 121 121 121 32 121 121 37 121 121 121 121 9 121 121 121 121 121 121 121 121 42 121 8 121 29 36 121 121 121 121 44 121 121 121 121 121 121 24 121 121 24 121 121 121 0 121 121 121 121 121 121 121 121 34 26 121 121 121 121 121 121 121 121 29 24 121 121 121 39 121 121 121 121 33 121 21 10 121
121 121 121 121 20 121 121 121 121 26 121 52 121 121 121 121 121 121 121 121 46 121 121 14 121 121 121 5 9 52 121 121 121 24 121 121 121 16 121 19 121 121 121 30 121 121 121 121 121 121 121 22 121 42 121 121 121 121 121 121 121 121 121 121 121 121 121 121 0 33 7 121 23 121 121 121 121 121 121 121 121 19 121 121 121 121 121 121 121 121 121 41 35 121 121 121 121 121 121 121 17
121 121 121 121 19 121 121 14 121 23 121 121 121 121 121 121 121 121 121 121 121 121 121 23 121 121 121 32 39 121 121 37 121 57 121 121 121 26 121 14 121 121 12 121 121 121 37 121 121 121 30 121 19 75 25 121 121 63 121 31 121 26 121 121 121 121 121 121 33 0 27 121 25 121 121 121 121 121 121 121 121 38 121 121 121 121 121 121 121 121 30 121 68 121 121 121 121 121 121 121 121
121 121 121 121 13 121 121 121 121 20 121 121 121 121 121 121 121 121 121 121 121 121 121 8 121 121 121 5 13 121 121 121 121 30 121 121 121 11 121 12 121 121 121 121 121 121 121 121 121 121 121 121 121 48 121 121 121 121 121 121 121 121 121 121 121 121 121 121 7 27 0 121 18 121 121 121 121 121 121 121 121 18 121 121 121 121 121 121 121 121 121 121 41 121 121 121 121 121 121 121 20
121 121 5 121 121 121 121 121 121 121 121 121 121 36 34 121 121 121 16 18 121 1 121 121 121 121 121 121 121 121 27 121 121 121 121 121 121 121 121 121 21 121 121 121 121 121 121 121 121 21 121 121 121 121 121 4 121 121 121 121 121 121 121 121 121 121 121 121 121 121 121 0 121 121 121 121 121 121 23 121 20 121 121 121 121 9 121 121 11 26 121 121 121 121 5 121 121 10 121 121 121
121 121 121 121 8 17 121 27 121 4 121 121 121 121 121 121 121 121 121 121 121 121 121 10 22 121 121 19 23 121 121 121 121 121 121 121 16 7 121 18 121 121 29 121 121 121 13 121 121 121 8 28 121 121 121 121 12 121 121 14 121 18 27 121 121 121 121 121 23 25 18 121 0 121 121 121 121 121 121 121 121 15 121 121 121 121 121 121 121 121 26 121 54 121 121 21 121 121 121 121 25
121 121 34 121 121 121 121 35 121 121 121 121 121 121 18 23 121 24 25 121 121 121 121 121 23 121 121 121 121 121 121 11 121 121 121 13 121 121 25 121 17 121 38 121 121 121 121 121 121 22 121 121 30 121 23 121 121 16 121 24 121 22 121 121 121 121 121 121 121 121 121 121 121 0 121 121 121 121 41 121 121 121 121 121 121 32 121 121 121 11 17 121 121 121 121 121 121 121 121 121 121
32 121 121 7 121 121 19 121 121 121 121 121 22 32 121 121 121 121 121 19 121 121 121 121 121 121 121 121 121 121 9 121 24 121 121 121 121 121 121 121 121 121 121 121 121 121 121 121 30 121 121 121 121 121 121 38 121 121 12 121 21 121 121 23 20 121 21 121 121 121 121 121 121 121 0 13 121 121 121 31 18 121 121 121 18 121 25 121 121 121 121 121 121 15 121 121 121 29 121 121 121
121 121 121 13 121 121 6 121 24 121 121 121 121 121 121 121 121 121 121 121 121 121 121 121 121 121 121 121 121 121 22 121 26 121 121 121 121 121 121 121 121 121 121 121 121 121 121 121 27 121 121 121 121 121 121 121 121 121 4 121 8 121 121 13 19 121 21 121 121 121 121 121 121 121 13 0 23 20 121 24 32 121 121 121 5 121 18 121 121 121 121 121 121 15 121 121 121 40 13 121 121
121 121 121 26 121 121 17 121 28 121 121 121 18 121 121 121 121 121 121 121 121 121 121 121 121 121 121 121 121 121 121 121 121 121 25 121 121 121 121 121 121 121 121 121 2 28 121 5 121 121 121 121 121 121 121 121 121 121 20 121 23 121 121 30 121 121 18 34 121 121 121 121 121 121 121 23 0 121 121 5 121 121 121 121 23 121 121 121 121 121 121 121 121 19 121 121 121 121 18 24 121
24 48 121 121 121 121 23 121 19 121 121 121 121 121 121 121 26 121 121 121 121 121 33 121 121 121 43 121 121 121 34 121 19 121 23 121 121 121 121 121 121 121 121 35 121 20 121 121 11 121 121 37 121 121 121 121 121 121 121 121 15 121 28 8 14 24 121 26 121 121 121 121 121 121 121 20 121 0 121 121 121 121 121 121 16 121 4 32 121 121 121 41 121 121 121 121 20 121 21 121 121
121 121 28 61 121 121 121 121 121 121 121 121 72 121 121 18 121 121 17 38 121 23 121 121 121 121 121 121 121 121 48 52 121 121 121 34 121 121 121 121 33 121 121 121 121 121 121 121 121 121 121 121 121 121 121 19 121 26 121 121 121 121 121 121 121 121 72 121 121 121 121 23 121 41 121 121 121 121 0 85 40 121 121 121 121 16 121 121 15 30 121 121 121 69 19 121 121 121 121 121 121
121 121 121 25 121 121 19 121 33 121 121 121 14 121 121 121 121 121 121 121 121 121 121 121 121 121 121 121 121 121 38 121 121 121 121 121 121 121 121 121 121 121 121 121 3 121 121 10 121 121 121 121 121 121 121 121 121 121 20 121 26 121 121 121 121 121 15 121 121 121 121 121 121 121 31 24 5 121 85 0 46 121 121 121 25 121 121 121 121 121 121 121 121 16 68 121 121 121 21 28 121
121 121 20 22 121 121 37 121 121 121 121 121 33 37 121 121 121 121 37 3 121 19 121 121 121 121 121 121 121 121 10 121 31 121 121 121 121 121 121 121 121 121 121 121 121 121 121 121 121 121 121 121 121 121 121 22 121 121 30 121 121 121 121 121 31 121 32 121 121 121 121 20 121 121 18 32 121 121 40 46 0 121 121 121 121 29 121 121 31 121 121 121 121 29 22 121 121 19 121 121 121
31 121 121 121 19 9 121 121 121 18 121 121 121 121 121 121 17 121 121 121 121 121 121 16 121 121 121 15 13 121 121 121 121 27 121 121 19 12 121 26 121 121 121 25 121 121 14 121 33 121 17 14 121 121 121 121 20 121 121 25 121 121 14 121 121 21 121 121 19 38 18 121 15 121 121 121 121 121 121 121 121 0 22 26 121 121 121 121 121 121 121 39 42 121 121 20 121 121 121 121 11
17 121 121 121 121 14 121 121 121 121 7 121 121 17 12 121 121 121 121 121 121 121 121 121 6 7 121 121 121 121 121 121 25 121 121 121 4 121 7 121 121 6 121 121 121 121 9 121 28 22 13 121 121 121 121 121 9 121 121 13 121 121 24 121 121 121 121 121 121 121 121 121 121 121 121 121 121 121 121 121 121 22 0 5 121 121 121 121 121 121 27 121 121 121 121 4 121 121 121 121 121
13 121 33 121 121 18 121 121 121 121 5 121 121 13 11 121 28 121 121 121 121 121 121 121 7 5 121 121 121 121 41 121 21 121 121 121 9 121 3 121 23 7 121 121 121 121 13 121 25 18 121 121 121 121 121 121 14 121 121 121 121 121 25 121 28 121 121 121 121 121 121 121 121 121 121 121 121 121 121 121 121 26 5 0 121 121 121 121 121 121 121 121 121 121 121 6 121 30 121 121 121
121 121 121 18 121 121 7 121 19 121 121 121 121 121 121 121 121 121 121 121 121 121 121 121 121 121 121 121 121 121 26 121 26 121 121 121 121 121 121 121 121 121 121 121 121 19 121 24 24 121 121 121 121 121 121 121 121 121 9 121 3 121 121 8 18 121 121 121 121 121 121 121 121 121 18 5 23 16 121 25 121 121 121 121 0 121 15 44 121 121 121 121 121 20 121 121 121 121 9 121 121
121 121 12 121 121 121 121 121 121 121 121 121 62 41 34 13 121 121 8 27 121 10 121 121 121 121 121 121 121 121 36 121 121 121 121 21 121 121 37 121 19 121 121 121 121 121 121 121 121 22 121 121 121 121 121 8 121 20 121 121 121 121 121 121 121 121 61 121 121 121 121 9 121 32 121 121 121 121 16 121 29 121 121 121 121 0 121 121 2 21 121 121 121 121 7 121 121 17 121 121 121
22 121 121 121 121 121 21 121 22 121 121 121 121 22 121 121 27 121 121 121 121 121 36 121 121 121 121 121 121 121 30 121 16 121 121 121 121 121 121 121 121 121 121 38 121 121 121 121 10 121 121 121 121 121 121 121 121 121 121 121 15 121 29 8 10 26 121 29 121 121 121 121 121 121 25 18 121 4 121 121 121 121 121 121 15 121 0 36 121 121 121 121 121 121 121 121 23 39 21 121 121
121 16 121 121 121 121 121 121 28 121 121 18 121 121 121 121 32 121 121 121 121 121 9 121 121 121 10 121 121 14 121 121 121 31 32 121 121 121 121 121 121 121 121 23 121 29 121 121 38 121 121 34 121 20 121 121 121 121 121 121 41 121 121 37 46 28 121 24 121 121 121 121 121 121 121 121 121 32 121 121 121 121 121 121 44 121 36 0 121 121 121 16 121 121 121 121 24 121 41 34 121
121 121 14 121 121 121 121 121 121 121 121 121 64 121 121 12 121 121 7 121 121 121 121 121 121 121 121 121 121 121 121 121 121 121 121 20 121 121 121 121 19 121 121 121 121 121 121 121 121 22 121 121 121 121 121 9 121 19 121 121 121 121 121 121 121 121 121 121 121 121 121 11 121 121 121 121 121 121 15 121 31 121 121 121 121 2 121 121 0 20 121 121 121 121 9 121 121 121 121 121 121
121 121 25 121 121 121 121 121 121 121 121 121 121 121 21 12 121 35 14 121 121 121 121 121 121 121 121 121 121 121 121 22 121 121 121 8 121 121 28 121 11 121 49 121 121 121 121 121 121 18 121 121 41 121 121 121 121 7 121 121 121 121 121 121 121 121 121 121 121 121 121 26 121 11 121 121 121 121 30 121 121 121 121 121 121 21 121 121 20 0 28 121 121 121 121 121 121 121 121 121 121
121 121 121 121 121 121 121 18 121 23 26 121 121 121 23 121 121 7 121 121 121 121 121 121 23 121 121 121 121 121 121 8 121 121 121 28 26 121 121 121 31 24 21 121 121 121 121 121 121 121 23 121 13 121 6 121 22 33 121 16 121 8 121 121 121 121 121 121 121 30 121 121 26 17 121 121 121 121 121 121 121 121 27 121 121 121 121 121 121 28 0 121 121 121 121 121 121 121 121 121 121
121 13 121 121 121 121 121 121 43 121 121 12 121 121 121 121 30 121 121 121 10 121 9 121 121 121 13 121 34 11 121 121 121 18 121 121 121 121 121 59 121 121 121 14 121 121 121 121 43 121 121 26 121 6 121 121 121 121 121 121 121 121 121 121 121 26 121 39 41 121 121 121 121 121 121 121 121 41 121 121 121 39 121 121 121 121 121 16 121 121 121 0 19 121 121 121 25 121 121 49 29
121 26 121 121 53 121 121 78 121 58 121 22 121 121 121 121 121 121 121 121 16 121 28 48 121 121 29 37 31 25 121 121 121 15 121 121 121 48 121 53 121 121 121 24 121 121 121 121 121 121 121 30 121 15 121 121 121 121 121 121 121 121 121 121 121 121 121 121 35 68 41 121 54 121 121 121 121 121 121 121 121 42 121 121 121 121 121 121 121 121 121 19 0 121 121 121 121 121 121 121 30
121 121 121 9 121 121 15 121 121 121 121 121 7 121 121 121 121 121 121 31 121 121 121 121 121 121 121 121 121 121 22 121 121 121 121 121 121 121 121 121 121 121 121 121 18 121 121 23 121 121 121 121 121 121 121 121 121 121 11 121 22 121 121 121 32 121 6 121 121 121 121 121 121 121 15 15 19 121 69 16 29 121 121 121 20 121 121 121 121 121 121 121 121 0 121 121 121 121 22 121 121
121 121 10 43 121 121 121 121 121 121 121 121 56 121 121 21 121 121 15 20 121 5 121 121 121 121 121 121 121 121 30 121 121 121 121 121 121 121 121 121 23 121 121 121 121 121 121 121 121 121 121 121 121 121 121 1 121 121 121 121 121 121 121 121 121 121 55 121 121 121 121 5 121 121 121 121 121 121 19 68 22 121 121 121 121 7 121 121 9 121 121 121 121 121 0 121 121 15 121 121 121
15 121 121 121 121 11 121 121 121 121 10 121 121 15 16 121 22 121 121 121 121 121 121 121 10 10 121 121 121 121 121 121 23 121 121 121 6 25 9 121 121 10 121 121 121 121 8 121 24 25 14 29 121 121 121 121 12 121 121 17 121 121 19 121 29 26 121 121 121 121 121 121 21 121 121 121 121 121 121 121 121 20 4 6 121 121 121 121 121 121 121 121 121 121 121 0 121 35 121 121 30
28 35 121 121 121 121 121 121 32 121 121 121 121 121 121 121 9 121 121 121 121 121 19 121 121 121 31 121 121 33 121 121 30 26 121 121 121 121 121 121 121 121 121 15 121 33 121 121 19 121 121 17 121 30 121 121 121 121 121 121 35 121 13 28 29 5 121 33 121 121 121 121 121 121 121 121 121 20 121 121 121 121 121 121 121 121 23 24 121 121 121 25 121 121 121 121 0 121 121 121 23
27 121 5 35 121 121 121 121 121 121 121 121 121 26 28 121 121 121 22 16 121 10 121 121 121 29 121 121 121 121 21 121 25 121 121 22 121 121 28 121 19 121 121 121 121 121 121 121 36 15 121 121 121 121 121 14 121 121 121 121 121 121 49 121 29 121 48 121 121 121 121 10 121 121 29 40 121 121 121 121 19 121 121 30 121 17 39 121 121 121 121 121 121 121 15 35 121 0 121 121 121
121 57 121 121 121 121 8 121 14 121 121 121 121 121 121 121 121 121 121 121 121 121 121 121 121 121 51 121 121 121 121 121 121 121 12 121 121 121 121 121 121 121 121 121 19 13 121 16 121 121 121 121 121 121 121 121 121 121 14 121 7 121 121 13 27 121 26 21 121 121 121 121 121 121 121 13 18 21 121 21 121 121 121 121 9 121 21 41 121 121 121 121 121 22 121 121 121 121 0 15 121
121 48 121 121 121 121 22 121 9 121 121 51 121 121 121 121 121 121 121 121 121 121 41 121 121 121 43 121 121 47 121 121 121 121 5 121 121 121 121 121 121 121 121 121 26 9 121 19 121 121 121 121 121 121 121 121 121 121 121 121 20 121 121 121 121 121 121 10 121 121 121 121 121 121 121 121 24 121 121 28 121 121 121 121 121 121 121 34 121 121 121 49 121 121 121 121 121 121 15 0 121
121 121 121 121 121 18 121 121 121 121 121 121 121 121 121 121 16 121 121 121 121 121 30 22 121 121 121 15 8 121 121 121 121 15 121 121 121 20 121 31 121 121 121 16 121 121 25 121 36 121 121 6 121 31 121 121 121 121 121 121 121 121 16 121 121 18 121 121 17 121 20 121 25 121 121 121 121 121 121 121 121 11 121 121 121 121 121 121 121 121 121 29 30 121 121 30 23 121 121 121 0
EOF
